c File: instances/34_0.25_1.col
c
c Description: Random graph of size 34 vertices and P(0.25) of edges between any two vertices.
p col 34 561
e 1 2
e 1 3
e 1 8
e 1 17
e 1 18
e 1 27
e 2 3
e 2 7
e 2 16
e 2 17
e 2 18
e 2 20
e 2 22
e 2 23
e 2 26
e 2 27
e 2 29
e 2 31
e 2 32
e 3 4
e 3 6
e 3 11
e 3 17
e 3 18
e 3 19
e 3 22
e 3 23
e 3 24
e 3 28
e 3 34
e 4 6
e 4 16
e 4 17
e 4 19
e 4 26
e 4 27
e 5 6
e 5 7
e 5 8
e 5 19
e 5 27
e 5 32
e 5 34
e 6 13
e 6 15
e 6 18
e 6 20
e 6 23
e 6 24
e 6 27
e 6 31
e 6 34
e 7 8
e 7 12
e 7 15
e 7 24
e 7 25
e 7 26
e 7 29
e 7 32
e 7 33
e 8 14
e 8 15
e 8 17
e 8 20
e 8 22
e 8 28
e 8 32
e 8 34
e 9 11
e 9 12
e 9 14
e 9 17
e 9 19
e 9 26
e 9 27
e 9 29
e 10 23
e 10 27
e 10 29
e 10 33
e 11 12
e 11 17
e 11 28
e 11 31
e 11 33
e 12 17
e 12 18
e 12 22
e 12 24
e 12 26
e 12 28
e 13 19
e 13 21
e 13 23
e 13 26
e 13 29
e 13 33
e 14 15
e 14 21
e 14 22
e 14 23
e 14 28
e 14 30
e 15 25
e 15 27
e 15 29
e 15 34
e 16 18
e 16 22
e 16 25
e 16 27
e 16 29
e 16 33
e 16 34
e 17 20
e 17 24
e 17 25
e 17 27
e 18 19
e 18 20
e 18 23
e 18 26
e 18 28
e 18 34
e 19 24
e 19 28
e 20 22
e 20 24
e 20 32
e 20 34
e 21 22
e 21 23
e 21 28
e 21 29
e 21 32
e 21 33
e 22 24
e 22 25
e 22 26
e 22 32
e 22 34
e 23 24
e 23 26
e 23 32
e 24 27
e 24 30
e 25 26
e 25 32
e 26 30
e 26 32
e 26 33
e 27 28
e 27 31
e 27 33
e 28 29
e 28 31
e 28 33
e 28 34
e 32 33
e 33 34